     Program PWSCF v.7.2 starts on 20Feb2024 at 16:57:56

     Waiting for input...
     Reading input from standard input

     Current dimensions of program PWSCF are:
     Max number of different atomic species (ntypx) = 10
     Max number of k-points (npk) =  40000
     Max angular momentum in pseudopotentials (lmaxx) =  4
     file Nb.pbesol-spn-kjpaw_psl.0.3.0.UPF: wavefunction(s)  4S 4P renormalized
     Message from routine setup:
     using ibrav=0 with symmetry is DISCOURAGED, use correct ibrav instead

     Subspace diagonalization in iterative solution of the eigenvalue problem:
     a serial algorithm will be used

     Using Slab Decomposition

     bravais-lattice index     =            0
     lattice parameter (alat)  =       6.3427  a.u.
     unit-cell volume          =     434.7255 (a.u.)^3
     number of atoms/cell      =            4
     number of atomic types    =            2
     number of electrons       =        36.00
     number of Kohn-Sham states=           26
     kinetic-energy cutoff     =      40.0000  Ry
     charge density cutoff     =     320.0000  Ry
     scf convergence threshold =      8.0E-10
     mixing beta               =       0.4000
     number of iterations used =            8  plain     mixing
     Exchange-correlation= PBESOL
                           (   1   4  10   8   0   0   0)

     celldm(1)=   6.342749  celldm(2)=   0.000000  celldm(3)=   0.000000
     celldm(4)=   0.000000  celldm(5)=   0.000000  celldm(6)=   0.000000

     crystal axes: (cart. coord. in units of alat)
               a(1) = (   1.000000   0.000000   0.000000 )
               a(2) = (   0.000000   1.000000   0.000000 )
               a(3) = (  -0.500000  -0.500000   1.703659 )

     reciprocal axes: (cart. coord. in units 2 pi/alat)
               b(1) = (  1.000000  0.000000  0.293486 )
               b(2) = (  0.000000  1.000000  0.293486 )
               b(3) = (  0.000000  0.000000  0.586972 )

     PseudoPot. # 1 for Nb read from file:
     ./pseudo/Nb.pbesol-spn-kjpaw_psl.0.3.0.UPF
     MD5 check sum: 3501bca1474143575298708b2d32ca28
     Pseudo is Projector augmented-wave + core cor, Zval = 13.0
     Generated using "atomic" code by A. Dal Corso  v.6.0 svn rev. 13079
     Shape of augmentation charge: PSQ
     Using radial grid of 1227 points,  6 beta functions with:
                l(1) =   0
                l(2) =   0
                l(3) =   1
                l(4) =   1
                l(5) =   2
                l(6) =   2
     Q(r) pseudized with 0 coefficients

     PseudoPot. # 2 for P  read from file:
     ./pseudo/P.pbesol-n-rrkjus_psl.1.0.0.UPF
     MD5 check sum: bbb94b1b16383820d6a769669b5d42db
     Pseudo is Ultrasoft + core correction, Zval =  5.0
     Generated using "atomic" code by A. Dal Corso  v.6.0 svn rev. 13079
     Using radial grid of 1147 points,  6 beta functions with:
                l(1) =   0
                l(2) =   0
                l(3) =   1
                l(4) =   1
                l(5) =   2
                l(6) =   2
     Q(r) pseudized with 0 coefficients

     atomic species   valence    mass     pseudopotential
        Nb            13.00    92.90638     Nb( 1.00)
        P              5.00    30.97376     P ( 1.00)

      8 Sym. Ops. (no inversion) found ( 4 have fractional translation)

                                    s                        frac. trans.

      isym =  1     identity

 cryst.   s( 1) = (     1          0          0      )
                  (     0          1          0      )
                  (     0          0          1      )

 cart.    s( 1) = (  1.0000000  0.0000000  0.0000000 )
                  (  0.0000000  1.0000000  0.0000000 )
                  (  0.0000000  0.0000000  1.0000000 )

      isym =  2     180 deg rotation - cart. axis [0,0,1]

[...]

 cryst.   s( 3) = (     0         -1          0      )    f =( -0.2500000 )
                  (     1          0          0      )       (  0.2500000 )
                  (     0          1          1      )       (  0.5000000 )

 cart.    s( 3) = (  0.0000000  1.0000000  0.0000000 )    f =( -0.5000000 )
                  ( -1.0000000  0.0000000  0.0000000 )       (  0.0000000 )
                  (  0.0000000  0.0000000  1.0000000 )       (  0.8518294 )

      isym =  4      90 deg rotation - cart. axis [0,0,1]

[...]

      isym =  5     inv. 180 deg rotation - cart. axis [0,1,0]

[...]

 cryst.   s( 6) = (    -1          0          0      )
                  (     0          1          0      )
                  (     1          0          1      )

 cart.    s( 6) = ( -1.0000000  0.0000000  0.0000000 )
                  (  0.0000000  1.0000000  0.0000000 )
                  (  0.0000000  0.0000000  1.0000000 )

[...]

      isym =  8     inv. 180 deg rotation - cart. axis [1,-1,0]

 cryst.   s( 8) = (     0          1          0      )    f =( -0.2500000 )
                  (     1          0          0      )       (  0.2500000 )
                  (     0          0          1      )       (  0.5000000 )

 cart.    s( 8) = (  0.0000000  1.0000000  0.0000000 )    f =( -0.5000000 )
                  (  1.0000000  0.0000000  0.0000000 )       (  0.0000000 )
                  (  0.0000000  0.0000000  1.0000000 )       (  0.8518294 )

   Cartesian axes

     site n.     atom                  positions (alat units)
         1           Nb  tau(   1) = (   0.0000000   0.0000000   1.7033964  )
         2           Nb  tau(   2) = (   0.5000000   0.0000000   0.8515670  )
         3           P   tau(   3) = (   0.5000000   0.5000000   1.4223745  )
         4           P   tau(   4) = (   0.0000000   0.5000000   0.5705451  )

   Crystallographic axes

     site n.     atom                  positions (cryst. coord.)
         1           Nb  tau(   1) = (  0.4999230  0.4999230  0.9998460  )
         2           Nb  tau(   2) = (  0.7499230  0.2499230  0.4998460  )
         3           P   tau(   3) = (  0.9174470  0.9174470  0.8348940  )
         4           P   tau(   4) = (  0.1674470  0.6674470  0.3348940  )

     number of k points=    84  Marzari-Vanderbilt smearing, width (Ry)=  0.0073
                       cart. coord. in units 2pi/alat
        k(    1) = (   0.0000000   0.0000000   0.0000000), wk =   0.0040000
        k(    2) = (   0.0000000   0.0000000   0.1173944), wk =   0.0080000
        k(    3) = (   0.0000000   0.0000000   0.2347888), wk =   0.0080000
        k(    4) = (   0.0000000   0.1000000   0.0293486), wk =   0.0160000
        k(    5) = (   0.0000000   0.1000000   0.1467430), wk =   0.0160000
        k(    6) = (   0.0000000   0.1000000   0.2641374), wk =   0.0160000
        k(    7) = (   0.0000000   0.1000000  -0.2054402), wk =   0.0160000
        k(    8) = (   0.0000000   0.1000000  -0.0880458), wk =   0.0160000
        k(    9) = (   0.0000000   0.2000000   0.0586972), wk =   0.0320000
        k(   10) = (   0.0000000   0.2000000   0.1760916), wk =   0.0320000
        k(   11) = (   0.0000000   0.2000000   0.2934860), wk =   0.0160000
        k(   12) = (   0.0000000   0.3000000   0.0880458), wk =   0.0160000
        k(   13) = (   0.0000000   0.3000000   0.2054402), wk =   0.0160000
        k(   14) = (   0.0000000   0.3000000   0.3228346), wk =   0.0160000
        k(   15) = (   0.0000000   0.3000000  -0.1467430), wk =   0.0160000
        k(   16) = (   0.0000000   0.3000000  -0.0293486), wk =   0.0160000
        k(   17) = (   0.0000000   0.4000000   0.1173944), wk =   0.0320000
        k(   18) = (   0.0000000   0.4000000   0.2347888), wk =   0.0320000
        k(   19) = (   0.0000000   0.4000000   0.0000000), wk =   0.0160000
        k(   20) = (   0.0000000  -0.5000000  -0.1467430), wk =   0.0080000
        k(   21) = (   0.0000000  -0.5000000  -0.0293486), wk =   0.0160000
        k(   22) = (   0.0000000  -0.5000000   0.0880458), wk =   0.0160000
        k(   23) = (   0.1000000   0.1000000   0.0586972), wk =   0.0160000
        k(   24) = (   0.1000000   0.1000000   0.1760916), wk =   0.0160000
        k(   25) = (   0.1000000   0.1000000   0.2934860), wk =   0.0080000
        k(   26) = (   0.1000000   0.2000000   0.0880458), wk =   0.0320000
        k(   27) = (   0.1000000   0.2000000   0.2054402), wk =   0.0320000
        k(   28) = (   0.1000000   0.2000000   0.3228346), wk =   0.0320000
        k(   29) = (   0.1000000   0.2000000  -0.1467430), wk =   0.0320000
        k(   30) = (   0.1000000   0.2000000  -0.0293486), wk =   0.0320000
        k(   31) = (   0.1000000   0.3000000   0.1173944), wk =   0.0320000
        k(   32) = (   0.1000000   0.3000000   0.2347888), wk =   0.0320000
        k(   33) = (   0.1000000   0.3000000   0.0000000), wk =   0.0160000
        k(   34) = (   0.1000000   0.4000000   0.1467430), wk =   0.0320000
        k(   35) = (   0.1000000   0.4000000   0.2641374), wk =   0.0320000
        k(   36) = (   0.1000000   0.4000000   0.3815318), wk =   0.0320000
        k(   37) = (   0.1000000   0.4000000  -0.0880458), wk =   0.0320000
        k(   38) = (   0.1000000   0.4000000   0.0293486), wk =   0.0320000
        k(   39) = (   0.1000000  -0.5000000  -0.1173944), wk =   0.0320000
        k(   40) = (   0.1000000  -0.5000000   0.0000000), wk =   0.0160000
        k(   41) = (   0.1000000  -0.5000000  -0.3521832), wk =   0.0320000
        k(   42) = (   0.1000000  -0.3000000  -0.0586972), wk =   0.0320000
        k(   43) = (   0.1000000  -0.3000000   0.1760916), wk =   0.0320000
        k(   44) = (   0.1000000  -0.3000000  -0.2934860), wk =   0.0160000
        k(   45) = (   0.1000000  -0.1000000   0.0000000), wk =   0.0080000
        k(   46) = (   0.1000000  -0.1000000   0.1173944), wk =   0.0160000
        k(   47) = (   0.1000000  -0.1000000   0.2347888), wk =   0.0160000
        k(   48) = (   0.2000000   0.2000000   0.1173944), wk =   0.0320000
        k(   49) = (   0.2000000   0.2000000   0.2347888), wk =   0.0320000
        k(   50) = (   0.2000000   0.2000000   0.0000000), wk =   0.0160000
        k(   51) = (   0.2000000   0.3000000   0.1467430), wk =   0.0320000
        k(   52) = (   0.2000000   0.3000000   0.2641374), wk =   0.0320000
        k(   53) = (   0.2000000   0.3000000   0.3815318), wk =   0.0320000
        k(   54) = (   0.2000000   0.3000000  -0.0880458), wk =   0.0320000
        k(   55) = (   0.2000000   0.3000000   0.0293486), wk =   0.0320000
        k(   56) = (   0.2000000   0.4000000   0.1760916), wk =   0.0640000
        k(   57) = (   0.2000000   0.4000000   0.2934860), wk =   0.0320000
        k(   58) = (   0.2000000   0.4000000  -0.0586972), wk =   0.0640000
        k(   59) = (   0.2000000  -0.5000000  -0.0880458), wk =   0.0320000
        k(   60) = (   0.2000000  -0.5000000   0.0293486), wk =   0.0320000
[...]
        k(   70) = (   0.3000000  -0.5000000  -0.0586972), wk =   0.0320000
        k(   71) = (   0.3000000  -0.5000000   0.1760916), wk =   0.0320000
        k(   72) = (   0.3000000  -0.5000000  -0.2934860), wk =   0.0160000
        k(   73) = (   0.3000000  -0.3000000  -0.0000000), wk =   0.0080000
        k(   74) = (   0.3000000  -0.3000000   0.1173944), wk =   0.0160000
        k(   75) = (   0.3000000  -0.3000000   0.2347888), wk =   0.0160000
        k(   76) = (   0.4000000   0.4000000   0.2347888), wk =   0.0320000
        k(   77) = (   0.4000000   0.4000000   0.4695776), wk =   0.0320000
        k(   78) = (   0.4000000   0.4000000   0.0000000), wk =   0.0160000
        k(   79) = (   0.4000000  -0.5000000  -0.0293486), wk =   0.0320000
        k(   80) = (   0.4000000  -0.5000000   0.0880458), wk =   0.0320000
        k(   81) = (   0.4000000  -0.5000000  -0.1467430), wk =   0.0160000
        k(   82) = (  -0.5000000  -0.5000000  -0.2934860), wk =   0.0040000
        k(   83) = (  -0.5000000  -0.5000000  -0.1760916), wk =   0.0080000
        k(   84) = (  -0.5000000  -0.5000000  -0.0586972), wk =   0.0080000

                       cryst. coord.
        k(    1) = (   0.0000000   0.0000000   0.0000000), wk =   0.0040000
        k(    2) = (   0.0000000   0.0000000   0.2000000), wk =   0.0080000
        k(    3) = (   0.0000000   0.0000000   0.4000000), wk =   0.0080000
        k(    4) = (   0.0000000   0.1000000   0.0000000), wk =   0.0160000
        k(    5) = (   0.0000000   0.1000000   0.2000000), wk =   0.0160000
        k(    6) = (   0.0000000   0.1000000   0.4000000), wk =   0.0160000
        k(    7) = (   0.0000000   0.1000000  -0.4000000), wk =   0.0160000
        k(    8) = (   0.0000000   0.1000000  -0.2000000), wk =   0.0160000
        k(    9) = (   0.0000000   0.2000000   0.0000000), wk =   0.0320000
        k(   10) = (   0.0000000   0.2000000   0.2000000), wk =   0.0320000
        k(   11) = (   0.0000000   0.2000000   0.4000000), wk =   0.0160000
        k(   12) = (   0.0000000   0.3000000   0.0000000), wk =   0.0160000
        k(   13) = (   0.0000000   0.3000000   0.2000000), wk =   0.0160000
        k(   14) = (   0.0000000   0.3000000   0.4000000), wk =   0.0160000
        k(   15) = (   0.0000000   0.3000000  -0.4000000), wk =   0.0160000
        k(   16) = (   0.0000000   0.3000000  -0.2000000), wk =   0.0160000
        k(   17) = (   0.0000000   0.4000000   0.0000000), wk =   0.0320000
        k(   18) = (   0.0000000   0.4000000   0.2000000), wk =   0.0320000
        k(   19) = (   0.0000000   0.4000000  -0.2000000), wk =   0.0160000
        k(   20) = (   0.0000000  -0.5000000   0.0000000), wk =   0.0080000
        k(   21) = (   0.0000000  -0.5000000   0.2000000), wk =   0.0160000
        k(   22) = (   0.0000000  -0.5000000   0.4000000), wk =   0.0160000
        k(   23) = (   0.1000000   0.1000000   0.0000000), wk =   0.0160000
        k(   24) = (   0.1000000   0.1000000   0.2000000), wk =   0.0160000
        k(   25) = (   0.1000000   0.1000000   0.4000000), wk =   0.0080000
        k(   26) = (   0.1000000   0.2000000   0.0000000), wk =   0.0320000
        k(   27) = (   0.1000000   0.2000000   0.2000000), wk =   0.0320000
        k(   28) = (   0.1000000   0.2000000   0.4000000), wk =   0.0320000
        k(   29) = (   0.1000000   0.2000000  -0.4000000), wk =   0.0320000
        k(   30) = (   0.1000000   0.2000000  -0.2000000), wk =   0.0320000
        k(   31) = (   0.1000000   0.3000000   0.0000000), wk =   0.0320000
        k(   32) = (   0.1000000   0.3000000   0.2000000), wk =   0.0320000
        k(   33) = (   0.1000000   0.3000000  -0.2000000), wk =   0.0160000
        k(   34) = (   0.1000000   0.4000000   0.0000000), wk =   0.0320000
        k(   35) = (   0.1000000   0.4000000   0.2000000), wk =   0.0320000
        k(   36) = (   0.1000000   0.4000000   0.4000000), wk =   0.0320000
        k(   37) = (   0.1000000   0.4000000  -0.4000000), wk =   0.0320000
        k(   38) = (   0.1000000   0.4000000  -0.2000000), wk =   0.0320000
        k(   39) = (   0.1000000  -0.5000000   0.0000000), wk =   0.0320000
        k(   40) = (   0.1000000  -0.5000000   0.2000000), wk =   0.0160000
        k(   41) = (   0.1000000  -0.5000000  -0.4000000), wk =   0.0320000
        k(   42) = (   0.1000000  -0.3000000   0.0000000), wk =   0.0320000
        k(   43) = (   0.1000000  -0.3000000   0.4000000), wk =   0.0320000
        k(   44) = (   0.1000000  -0.3000000  -0.4000000), wk =   0.0160000
        k(   45) = (   0.1000000  -0.1000000  -0.0000000), wk =   0.0080000
        k(   46) = (   0.1000000  -0.1000000   0.2000000), wk =   0.0160000
        k(   47) = (   0.1000000  -0.1000000   0.4000000), wk =   0.0160000
        k(   48) = (   0.2000000   0.2000000   0.0000000), wk =   0.0320000
        k(   49) = (   0.2000000   0.2000000   0.2000000), wk =   0.0320000
        k(   50) = (   0.2000000   0.2000000  -0.2000000), wk =   0.0160000
        k(   51) = (   0.2000000   0.3000000   0.0000000), wk =   0.0320000
        k(   52) = (   0.2000000   0.3000000   0.2000000), wk =   0.0320000
        k(   53) = (   0.2000000   0.3000000   0.4000000), wk =   0.0320000
        k(   54) = (   0.2000000   0.3000000  -0.4000000), wk =   0.0320000
        k(   55) = (   0.2000000   0.3000000  -0.2000000), wk =   0.0320000
        k(   56) = (   0.2000000   0.4000000   0.0000000), wk =   0.0640000
        k(   57) = (   0.2000000   0.4000000   0.2000000), wk =   0.0320000
        k(   58) = (   0.2000000   0.4000000  -0.4000000), wk =   0.0640000
        k(   59) = (   0.2000000  -0.5000000   0.0000000), wk =   0.0320000
        k(   60) = (   0.2000000  -0.5000000   0.2000000), wk =   0.0320000
[...]
        k(   70) = (   0.3000000  -0.5000000   0.0000000), wk =   0.0320000
        k(   71) = (   0.3000000  -0.5000000   0.4000000), wk =   0.0320000
        k(   72) = (   0.3000000  -0.5000000  -0.4000000), wk =   0.0160000
        k(   73) = (   0.3000000  -0.3000000   0.0000000), wk =   0.0080000
        k(   74) = (   0.3000000  -0.3000000   0.2000000), wk =   0.0160000
        k(   75) = (   0.3000000  -0.3000000   0.4000000), wk =   0.0160000
        k(   76) = (   0.4000000   0.4000000   0.0000000), wk =   0.0320000
        k(   77) = (   0.4000000   0.4000000   0.4000000), wk =   0.0320000
        k(   78) = (   0.4000000   0.4000000  -0.4000000), wk =   0.0160000
        k(   79) = (   0.4000000  -0.5000000  -0.0000000), wk =   0.0320000
        k(   80) = (   0.4000000  -0.5000000   0.2000000), wk =   0.0320000
        k(   81) = (   0.4000000  -0.5000000  -0.2000000), wk =   0.0160000
        k(   82) = (  -0.5000000  -0.5000000   0.0000000), wk =   0.0040000
        k(   83) = (  -0.5000000  -0.5000000   0.2000000), wk =   0.0080000
        k(   84) = (  -0.5000000  -0.5000000   0.4000000), wk =   0.0080000

     Check: negative core charge=   -0.000003

     Initial potential from superposition of free atoms

     starting charge      35.9958, renormalised to      36.0000
     Starting wfcs are   28 randomized atomic wfcs
     Checking if some PAW data can be deallocated...

     Self-consistent Calculation

     iteration #  1     ecut=    40.00 Ry     beta= 0.40
     Davidson diagonalization with overlap

     ethr =  1.00E-02,  avg # of iterations =  3.4

     total energy              =    -688.33206949 Ry
     estimated scf accuracy    <       0.54854333 Ry

[...]

     total energy              =    -688.47129270 Ry
     estimated scf accuracy    <          8.9E-10 Ry

     iteration # 10     ecut=    40.00 Ry     beta= 0.40
     Davidson diagonalization with overlap

     ethr =  2.47E-12,  avg # of iterations =  4.5

     End of self-consistent calculation

          k = 0.0000 0.0000 0.0000 (  1857 PWs)   bands (ev):

   -40.0191 -39.9807 -16.3163 -16.1212 -16.1212 -15.9755 -15.9755 -15.9248
     2.1186   4.5563   8.6532  11.8039  12.5839  12.5839  12.6793  13.1254
    13.4670  13.4670  15.6172  16.4021  17.4897  17.9434  17.9434  18.2675
    18.8799  18.8799

     occupation numbers
     1.0000   1.0000   1.0000   1.0000   1.0000   1.0000   1.0000   1.0000
     1.0000   1.0000   1.0000   1.0000   1.0000   1.0000   1.0000   1.0000
     1.0000   1.0000   0.0000   0.0000   0.0000   0.0000   0.0000   0.0000
     0.0000   0.0000

[...]

          k = 0.4000-0.5000-0.1467 (  1832 PWs)   bands (ev):

[...]

          k =-0.5000-0.5000-0.2935 (  1842 PWs)   bands (ev):

[...]

          k =-0.5000-0.5000-0.0587 (  1836 PWs)   bands (ev):

   -39.9665 -39.9665 -16.3630 -16.3630 -16.1937 -16.1937 -16.0261 -16.0261
     4.6238   4.6238   9.7687   9.7687  10.2287  10.2287  11.9861  11.9861
    14.3719  14.3719  17.7575  17.7575  17.8679  17.8679  18.8525  18.8525
    20.5266  20.5266

     occupation numbers
     1.0000   1.0000   1.0000   1.0000   1.0000   1.0000   1.0000   1.0000
     1.0000   1.0000   1.0000   1.0000   1.0000   1.0000   1.0000   1.0000
     1.0000   1.0000   0.0000   0.0000   0.0000   0.0000   0.0000   0.0000
     0.0000   0.0000

     the Fermi energy is    14.8185 ev

!    total energy              =    -688.47129270 Ry
     estimated scf accuracy    <          1.7E-10 Ry
     smearing contrib. (-TS)   =      -0.00001771 Ry
     internal energy E=F+TS    =    -688.47127498 Ry

     The total energy is F=E-TS. E is the sum of the following terms:
     one-electron contribution =     -37.27077220 Ry
     hartree contribution      =      39.40986621 Ry
     xc contribution           =     -66.44804226 Ry
     ewald contribution        =    -215.34496258 Ry
     one-center paw contrib.   =    -408.81736416 Ry
      -> PAW hartree energy AE =     136.90166590 Ry
      -> PAW hartree energy PS =    -136.14237767 Ry
      -> PAW xc energy AE      =    -463.28208253 Ry
      -> PAW xc energy PS      =      53.70543014 Ry
      -> total E_H with PAW    =      40.16915444 Ry
      -> total E_XC with PAW   =    -476.02469464 Ry

     convergence has been achieved in  10 iterations

     Forces acting on atoms (cartesian axes, Ry/au):

     atom    1 type  1   force =     0.00000000    0.00000000    0.00008427
     atom    2 type  1   force =     0.00000000    0.00000000    0.00008427
     atom    3 type  2   force =     0.00000000    0.00000000   -0.00008427
     atom    4 type  2   force =     0.00000000    0.00000000   -0.00008427
     The non-local contrib.  to forces
     atom    1 type  1   force =     0.00000000    0.00000000   -0.00393630
     atom    2 type  1   force =     0.00000000    0.00000000   -0.00393630
     atom    3 type  2   force =     0.00000000    0.00000000   -0.00410077
     atom    4 type  2   force =     0.00000000    0.00000000   -0.00410077
     The ionic contribution  to forces
     atom    1 type  1   force =     0.00000000    0.00000000   -0.10637256
     atom    2 type  1   force =    -0.00000000    0.00000000   -0.10637256
     atom    3 type  2   force =     0.00000000    0.00000000    0.10637256
     atom    4 type  2   force =    -0.00000000    0.00000000    0.10637256
     The local contribution  to forces
     atom    1 type  1   force =    -0.00000000   -0.00000000    0.11000236
     atom    2 type  1   force =    -0.00000000   -0.00000000    0.11000236
     atom    3 type  2   force =    -0.00000000   -0.00000000   -0.10237334
     atom    4 type  2   force =    -0.00000000   -0.00000000   -0.10237334
     The core correction contribution to forces
     atom    1 type  1   force =    -0.00000001   -0.00000009    0.00039148
     atom    2 type  1   force =    -0.00000009   -0.00000001    0.00039148
     atom    3 type  2   force =    -0.00000000   -0.00000001    0.00001630
     atom    4 type  2   force =    -0.00000001   -0.00000000    0.00001630
     The Hubbard contrib.    to forces
     atom    1 type  1   force =     0.00000000    0.00000000    0.00000000
     atom    2 type  1   force =     0.00000000    0.00000000    0.00000000
     atom    3 type  2   force =     0.00000000    0.00000000    0.00000000
     atom    4 type  2   force =     0.00000000    0.00000000    0.00000000
     The SCF correction term to forces
     atom    1 type  1   force =    -0.00000000    0.00000000   -0.00000143
     atom    2 type  1   force =     0.00000000   -0.00000000   -0.00000143
     atom    3 type  2   force =     0.00000000    0.00000000    0.00000027
     atom    4 type  2   force =     0.00000000    0.00000000    0.00000027

     Total force =     0.000169     Total SCF correction =     0.000002

     Computing stress (Cartesian axis) and pressure

          total   stress  (Ry/bohr**3)                   (kbar)     P=      -66.64
  -0.00047602   0.00000000   0.00000000          -70.02        0.00        0.00
   0.00000000  -0.00047602   0.00000000            0.00      -70.02        0.00
   0.00000000   0.00000000  -0.00040692            0.00        0.00      -59.86

     kinetic stress (kbar)  21865.31      0.00      0.00
                                0.00  21865.31      0.00
                                0.00      0.00  22083.84

     local   stress (kbar)  -6023.41     -0.00      0.00
                               -0.00  -6023.41      0.00
                                0.00      0.00  -5258.82

     nonloc. stress (kbar)   8544.77      0.00      0.00
                                0.00   8544.77      0.00
                                0.00      0.00   8475.49

     hartree stress (kbar)   4430.84     -0.00     -0.00
                               -0.00   4430.84     -0.00
                               -0.00     -0.00   4474.07

     exc-cor stress (kbar)   6099.29     -0.00      0.00
                               -0.00   6099.29      0.00
                                0.00      0.00   6099.12

     corecor stress (kbar) -11013.36     -0.00      0.00
                               -0.00 -11013.36      0.00
                                0.00      0.00 -11010.75

     ewald   stress (kbar) -23973.47      0.00     -0.00
                                0.00 -23973.47     -0.00
                               -0.00     -0.00 -24922.81

     hubbard stress (kbar)      0.00      0.00      0.00
                                0.00      0.00      0.00
                                0.00      0.00      0.00

     DFT-D   stress (kbar)      0.00      0.00      0.00
                                0.00      0.00      0.00
                                0.00      0.00      0.00

     XDM     stress (kbar)      0.00      0.00      0.00
                                0.00      0.00      0.00
                                0.00      0.00      0.00

     dft-nl  stress (kbar)      0.00      0.00      0.00
                                0.00      0.00      0.00
                                0.00      0.00      0.00

     TS-vdW  stress (kbar)      0.00      0.00      0.00
                                0.00      0.00      0.00
                                0.00      0.00      0.00

     MDB     stress (kbar)      0.00      0.00      0.00
                                0.00      0.00      0.00
                                0.00      0.00      0.00

     3D-RISM stress (kbar)      0.00      0.00      0.00
                                0.00      0.00      0.00
                                0.00      0.00      0.00

     Writing all to output data dir ./out/NbP_bulk.save/

     General routines

     Parallel routines

     PAW routines

   This run was terminated on:  16:58:49  20Feb2024

   JOB DONE.