     Program PWSCF v.7.2 starts on 15Feb2024 at 15:30:48

     Waiting for input...
     Reading input from standard input

     Current dimensions of program PWSCF are:
     Max number of different atomic species (ntypx) = 10
     Max number of k-points (npk) =  40000
     Max angular momentum in pseudopotentials (lmaxx) =  4
     file Nb.pbesol-spn-kjpaw_psl.0.3.0.UPF: wavefunction(s)  4S 4P renormalized
     Found identity + (  0.5000  0.0000  0.0000) symmetry
     This is a supercell, fractional translations are disabled

     Subspace diagonalization in iterative solution of the eigenvalue problem:
     a serial algorithm will be used

     Using Slab Decomposition

     bravais-lattice index     =            0
     lattice parameter (alat)  =      12.6855  a.u.
     unit-cell volume          =    5216.7059 (a.u.)^3
     number of atoms/cell      =           16
     number of atomic types    =            2
     number of electrons       =       144.00
     number of Kohn-Sham states=           75
     kinetic-energy cutoff     =      40.0000  Ry
     charge density cutoff     =     320.0000  Ry
     scf convergence threshold =      8.0E-08
     mixing beta               =       0.4000
     number of iterations used =            8  plain     mixing
     Exchange-correlation= PBESOL
                           (   1   4  10   8   0   0   0)

     celldm(1)=  12.685497  celldm(2)=   0.000000  celldm(3)=   0.000000
     celldm(4)=   0.000000  celldm(5)=   0.000000  celldm(6)=   0.000000

     crystal axes: (cart. coord. in units of alat)
               a(1) = (   1.000000   0.000000   0.000000 )
               a(2) = (   0.000000   1.000000   0.000000 )
               a(3) = (  -0.750000  -0.750000   2.555488 )

     reciprocal axes: (cart. coord. in units 2 pi/alat)
               b(1) = (  1.000000  0.000000  0.293486 )
               b(2) = (  0.000000  1.000000  0.293486 )
               b(3) = (  0.000000  0.000000  0.391315 )

     PseudoPot. # 1 for Nb read from file:
     ./pseudo/Nb.pbesol-spn-kjpaw_psl.0.3.0.UPF
     MD5 check sum: 3501bca1474143575298708b2d32ca28
     Pseudo is Projector augmented-wave + core cor, Zval = 13.0
     Generated using "atomic" code by A. Dal Corso  v.6.0 svn rev. 13079
     Shape of augmentation charge: PSQ
     Using radial grid of 1227 points,  6 beta functions with:
                l(1) =   0
                l(2) =   0
                l(3) =   1
                l(4) =   1
                l(5) =   2
                l(6) =   2
     Q(r) pseudized with 0 coefficients

     PseudoPot. # 2 for P  read from file:
     ./pseudo/P.pbesol-n-rrkjus_psl.1.0.0.UPF
     MD5 check sum: bbb94b1b16383820d6a769669b5d42db
     Pseudo is Ultrasoft + core correction, Zval =  5.0
     Generated using "atomic" code by A. Dal Corso  v.6.0 svn rev. 13079
     Using radial grid of 1147 points,  6 beta functions with:
                l(1) =   0
                l(2) =   0
                l(3) =   1
                l(4) =   1
                l(5) =   2
                l(6) =   2
     Q(r) pseudized with 0 coefficients

     atomic species   valence    mass     pseudopotential
        Nb            13.00    92.90638     Nb( 1.00)
        P              5.00    30.97376     P ( 1.00)

     No symmetry found

                                    s                        frac. trans.

      isym =  1     identity

 cryst.   s( 1) = (     1          0          0      )
                  (     0          1          0      )
                  (     0          0          1      )

 cart.    s( 1) = (  1.0000000  0.0000000  0.0000000 )
                  (  0.0000000  1.0000000  0.0000000 )
                  (  0.0000000  0.0000000  1.0000000 )

   Cartesian axes

     site n.     atom                  positions (alat units)
         1           Nb  tau(   1) = (   0.0000000   0.0000000   0.8516982  )
         2           Nb  tau(   2) = (   0.5000000   0.0000000   0.8516982  )
         3           Nb  tau(   3) = (   0.0000000   0.5000000   0.8516982  )
         4           Nb  tau(   4) = (   0.5000000   0.5000000   0.8516982  )
         5           Nb  tau(   5) = (   0.2500000   0.0000000   0.4257835  )
         6           Nb  tau(   6) = (   0.7500000   0.0000000   0.4257835  )
         7           Nb  tau(   7) = (   0.2500000   0.5000000   0.4257835  )
         8           Nb  tau(   8) = (   0.7500000   0.5000000   0.4257835  )
         9           P   tau(   9) = (   0.2500000   0.2500000   0.7111872  )
        10           P   tau(  10) = (   0.7500000   0.2500000   0.7111872  )
        11           P   tau(  11) = (   0.2500000   0.7500000   0.7111872  )
        12           P   tau(  12) = (   0.7500000   0.7500000   0.7111872  )
        13           P   tau(  13) = (   0.0000000   0.2500000   0.2852725  )
        14           P   tau(  14) = (   0.5000000   0.2500000   0.2852725  )
        15           P   tau(  15) = (   0.0000000   0.7500000   0.2852725  )
        16           P   tau(  16) = (   0.5000000   0.7500000   0.2852725  )

   Crystallographic axes

     site n.     atom                  positions (cryst. coord.)
         1           Nb  tau(   1) = (  0.2499615  0.2499615  0.3332820  )
         2           Nb  tau(   2) = (  0.7499615  0.2499615  0.3332820  )
         3           Nb  tau(   3) = (  0.2499615  0.7499615  0.3332820  )
         4           Nb  tau(   4) = (  0.7499615  0.7499615  0.3332820  )
         5           Nb  tau(   5) = (  0.3749615  0.1249615  0.1666153  )
         6           Nb  tau(   6) = (  0.8749615  0.1249615  0.1666153  )
         7           Nb  tau(   7) = (  0.3749615  0.6249615  0.1666153  )
         8           Nb  tau(   8) = (  0.8749615  0.6249615  0.1666153  )
         9           P   tau(   9) = (  0.4587235  0.4587235  0.2782980  )
        10           P   tau(  10) = (  0.9587235  0.4587235  0.2782980  )
        11           P   tau(  11) = (  0.4587235  0.9587235  0.2782980  )
        12           P   tau(  12) = (  0.9587235  0.9587235  0.2782980  )
        13           P   tau(  13) = (  0.0837235  0.3337235  0.1116313  )
        14           P   tau(  14) = (  0.5837235  0.3337235  0.1116313  )
        15           P   tau(  15) = (  0.0837235  0.8337235  0.1116313  )
        16           P   tau(  16) = (  0.5837235  0.8337235  0.1116313  )

     number of k points=   152  Marzari-Vanderbilt smearing, width (Ry)=  0.0073
                       cart. coord. in units 2pi/alat
        k(    1) = (   0.0000000   0.0000000   0.0000000), wk =   0.0066667
        k(    2) = (   0.0000000   0.0000000   0.1304382), wk =   0.0133333
        k(    3) = (   0.0000000   0.1000000   0.0293486), wk =   0.0133333
        k(    4) = (   0.0000000   0.1000000   0.1597868), wk =   0.0133333
        k(    5) = (   0.0000000   0.1000000  -0.1010896), wk =   0.0133333
        k(    6) = (   0.0000000   0.2000000   0.0586972), wk =   0.0133333
        k(    7) = (   0.0000000   0.2000000   0.1891354), wk =   0.0133333
        k(    8) = (   0.0000000   0.2000000  -0.0717410), wk =   0.0133333
        k(    9) = (   0.0000000   0.3000000   0.0880458), wk =   0.0133333
        k(   10) = (   0.0000000   0.3000000   0.2184840), wk =   0.0133333
        k(   11) = (   0.0000000   0.3000000  -0.0423924), wk =   0.0133333
        k(   12) = (   0.0000000   0.4000000   0.1173944), wk =   0.0133333
        k(   13) = (   0.0000000   0.4000000   0.2478326), wk =   0.0133333
        k(   14) = (   0.0000000   0.4000000  -0.0130438), wk =   0.0133333
        k(   15) = (   0.0000000  -0.5000000  -0.1467430), wk =   0.0066667
        k(   16) = (   0.0000000  -0.5000000  -0.0163048), wk =   0.0133333
        k(   17) = (   0.1000000   0.0000000   0.0293486), wk =   0.0133333
        k(   18) = (   0.1000000   0.0000000   0.1597868), wk =   0.0133333
        k(   19) = (   0.1000000   0.0000000  -0.1010896), wk =   0.0133333
        k(   20) = (   0.1000000   0.1000000   0.0586972), wk =   0.0133333
        k(   21) = (   0.1000000   0.1000000   0.1891354), wk =   0.0133333
        k(   22) = (   0.1000000   0.1000000  -0.0717410), wk =   0.0133333
        k(   23) = (   0.1000000   0.2000000   0.0880458), wk =   0.0133333
        k(   24) = (   0.1000000   0.2000000   0.2184840), wk =   0.0133333
        k(   25) = (   0.1000000   0.2000000  -0.0423924), wk =   0.0133333
        k(   26) = (   0.1000000   0.3000000   0.1173944), wk =   0.0133333
        k(   27) = (   0.1000000   0.3000000   0.2478326), wk =   0.0133333
        k(   28) = (   0.1000000   0.3000000  -0.0130438), wk =   0.0133333
        k(   29) = (   0.1000000   0.4000000   0.1467430), wk =   0.0133333
        k(   30) = (   0.1000000   0.4000000   0.2771812), wk =   0.0133333
        k(   31) = (   0.1000000   0.4000000   0.0163048), wk =   0.0133333
        k(   32) = (   0.1000000  -0.5000000  -0.1173944), wk =   0.0133333
        k(   33) = (   0.1000000  -0.5000000   0.0130438), wk =   0.0133333
        k(   34) = (   0.1000000  -0.5000000  -0.2478326), wk =   0.0133333
        k(   35) = (   0.1000000  -0.4000000  -0.0880458), wk =   0.0133333
        k(   36) = (   0.1000000  -0.4000000   0.0423924), wk =   0.0133333
        k(   37) = (   0.1000000  -0.4000000  -0.2184840), wk =   0.0133333
        k(   38) = (   0.1000000  -0.3000000  -0.0586972), wk =   0.0133333
        k(   39) = (   0.1000000  -0.3000000   0.0717410), wk =   0.0133333
        k(   40) = (   0.1000000  -0.3000000  -0.1891354), wk =   0.0133333
        k(   41) = (   0.1000000  -0.2000000  -0.0293486), wk =   0.0133333
        k(   42) = (   0.1000000  -0.2000000   0.1010896), wk =   0.0133333
        k(   43) = (   0.1000000  -0.2000000  -0.1597868), wk =   0.0133333
        k(   44) = (   0.1000000  -0.1000000   0.0000000), wk =   0.0133333
        k(   45) = (   0.1000000  -0.1000000   0.1304382), wk =   0.0133333
        k(   46) = (   0.1000000  -0.1000000  -0.1304382), wk =   0.0133333
        k(   47) = (   0.2000000   0.0000000   0.0586972), wk =   0.0133333
        k(   48) = (   0.2000000   0.0000000   0.1891354), wk =   0.0133333
        k(   49) = (   0.2000000   0.0000000  -0.0717410), wk =   0.0133333
        k(   50) = (   0.2000000   0.1000000   0.0880458), wk =   0.0133333
        k(   51) = (   0.2000000   0.1000000   0.2184840), wk =   0.0133333
        k(   52) = (   0.2000000   0.1000000  -0.0423924), wk =   0.0133333
        k(   53) = (   0.2000000   0.2000000   0.1173944), wk =   0.0133333
        k(   54) = (   0.2000000   0.2000000   0.2478326), wk =   0.0133333
        k(   55) = (   0.2000000   0.2000000  -0.0130438), wk =   0.0133333
        k(   56) = (   0.2000000   0.3000000   0.1467430), wk =   0.0133333
        k(   57) = (   0.2000000   0.3000000   0.2771812), wk =   0.0133333
        k(   58) = (   0.2000000   0.3000000   0.0163048), wk =   0.0133333
        k(   59) = (   0.2000000   0.4000000   0.1760916), wk =   0.0133333
        k(   60) = (   0.2000000   0.4000000   0.3065298), wk =   0.0133333
[...]
        k(  138) = (  -0.5000000   0.0000000  -0.0163048), wk =   0.0133333
        k(  139) = (  -0.5000000   0.1000000  -0.1173944), wk =   0.0133333
        k(  140) = (  -0.5000000   0.1000000   0.0130438), wk =   0.0133333
        k(  141) = (  -0.5000000   0.1000000  -0.2478326), wk =   0.0133333
        k(  142) = (  -0.5000000   0.2000000  -0.0880458), wk =   0.0133333
        k(  143) = (  -0.5000000   0.2000000   0.0423924), wk =   0.0133333
        k(  144) = (  -0.5000000   0.2000000  -0.2184840), wk =   0.0133333
        k(  145) = (  -0.5000000   0.3000000  -0.0586972), wk =   0.0133333
        k(  146) = (  -0.5000000   0.3000000   0.0717410), wk =   0.0133333
        k(  147) = (  -0.5000000   0.3000000  -0.1891354), wk =   0.0133333
        k(  148) = (  -0.5000000   0.4000000  -0.0293486), wk =   0.0133333
        k(  149) = (  -0.5000000   0.4000000   0.1010896), wk =   0.0133333
        k(  150) = (  -0.5000000   0.4000000  -0.1597868), wk =   0.0133333
        k(  151) = (  -0.5000000  -0.5000000  -0.2934860), wk =   0.0066667
        k(  152) = (  -0.5000000  -0.5000000  -0.1630478), wk =   0.0133333

                       cryst. coord.
        k(    1) = (   0.0000000   0.0000000   0.0000000), wk =   0.0066667
        k(    2) = (   0.0000000   0.0000000   0.3333333), wk =   0.0133333
        k(    3) = (   0.0000000   0.1000000   0.0000000), wk =   0.0133333
        k(    4) = (   0.0000000   0.1000000   0.3333333), wk =   0.0133333
        k(    5) = (   0.0000000   0.1000000  -0.3333333), wk =   0.0133333
        k(    6) = (   0.0000000   0.2000000   0.0000000), wk =   0.0133333
        k(    7) = (   0.0000000   0.2000000   0.3333333), wk =   0.0133333
        k(    8) = (   0.0000000   0.2000000  -0.3333333), wk =   0.0133333
        k(    9) = (   0.0000000   0.3000000   0.0000000), wk =   0.0133333
        k(   10) = (   0.0000000   0.3000000   0.3333333), wk =   0.0133333
        k(   11) = (   0.0000000   0.3000000  -0.3333333), wk =   0.0133333
        k(   12) = (   0.0000000   0.4000000   0.0000000), wk =   0.0133333
        k(   13) = (   0.0000000   0.4000000   0.3333333), wk =   0.0133333
        k(   14) = (   0.0000000   0.4000000  -0.3333333), wk =   0.0133333
        k(   15) = (   0.0000000  -0.5000000   0.0000000), wk =   0.0066667
        k(   16) = (   0.0000000  -0.5000000   0.3333333), wk =   0.0133333
        k(   17) = (   0.1000000   0.0000000   0.0000000), wk =   0.0133333
        k(   18) = (   0.1000000   0.0000000   0.3333333), wk =   0.0133333
        k(   19) = (   0.1000000   0.0000000  -0.3333333), wk =   0.0133333
        k(   20) = (   0.1000000   0.1000000   0.0000000), wk =   0.0133333
        k(   21) = (   0.1000000   0.1000000   0.3333333), wk =   0.0133333
        k(   22) = (   0.1000000   0.1000000  -0.3333333), wk =   0.0133333
        k(   23) = (   0.1000000   0.2000000   0.0000000), wk =   0.0133333
        k(   24) = (   0.1000000   0.2000000   0.3333333), wk =   0.0133333
        k(   25) = (   0.1000000   0.2000000  -0.3333333), wk =   0.0133333
        k(   26) = (   0.1000000   0.3000000   0.0000000), wk =   0.0133333
        k(   27) = (   0.1000000   0.3000000   0.3333333), wk =   0.0133333
        k(   28) = (   0.1000000   0.3000000  -0.3333333), wk =   0.0133333
        k(   29) = (   0.1000000   0.4000000  -0.0000000), wk =   0.0133333
        k(   30) = (   0.1000000   0.4000000   0.3333333), wk =   0.0133333
        k(   31) = (   0.1000000   0.4000000  -0.3333333), wk =   0.0133333
        k(   32) = (   0.1000000  -0.5000000  -0.0000000), wk =   0.0133333
        k(   33) = (   0.1000000  -0.5000000   0.3333333), wk =   0.0133333
        k(   34) = (   0.1000000  -0.5000000  -0.3333333), wk =   0.0133333
        k(   35) = (   0.1000000  -0.4000000   0.0000000), wk =   0.0133333
        k(   36) = (   0.1000000  -0.4000000   0.3333333), wk =   0.0133333
        k(   37) = (   0.1000000  -0.4000000  -0.3333333), wk =   0.0133333
        k(   38) = (   0.1000000  -0.3000000   0.0000000), wk =   0.0133333
        k(   39) = (   0.1000000  -0.3000000   0.3333333), wk =   0.0133333
        k(   40) = (   0.1000000  -0.3000000  -0.3333333), wk =   0.0133333
        k(   41) = (   0.1000000  -0.2000000  -0.0000000), wk =   0.0133333
        k(   42) = (   0.1000000  -0.2000000   0.3333333), wk =   0.0133333
        k(   43) = (   0.1000000  -0.2000000  -0.3333333), wk =   0.0133333
        k(   44) = (   0.1000000  -0.1000000  -0.0000000), wk =   0.0133333
        k(   45) = (   0.1000000  -0.1000000   0.3333333), wk =   0.0133333
        k(   46) = (   0.1000000  -0.1000000  -0.3333333), wk =   0.0133333
        k(   47) = (   0.2000000   0.0000000   0.0000000), wk =   0.0133333
        k(   48) = (   0.2000000   0.0000000   0.3333333), wk =   0.0133333
        k(   49) = (   0.2000000   0.0000000  -0.3333333), wk =   0.0133333
        k(   50) = (   0.2000000   0.1000000   0.0000000), wk =   0.0133333
        k(   51) = (   0.2000000   0.1000000   0.3333333), wk =   0.0133333
        k(   52) = (   0.2000000   0.1000000  -0.3333333), wk =   0.0133333
        k(   53) = (   0.2000000   0.2000000   0.0000000), wk =   0.0133333
        k(   54) = (   0.2000000   0.2000000   0.3333333), wk =   0.0133333
        k(   55) = (   0.2000000   0.2000000  -0.3333333), wk =   0.0133333
        k(   56) = (   0.2000000   0.3000000   0.0000000), wk =   0.0133333
        k(   57) = (   0.2000000   0.3000000   0.3333333), wk =   0.0133333
        k(   58) = (   0.2000000   0.3000000  -0.3333333), wk =   0.0133333
        k(   59) = (   0.2000000   0.4000000   0.0000000), wk =   0.0133333
        k(   60) = (   0.2000000   0.4000000   0.3333333), wk =   0.0133333
[...]
        k(  138) = (  -0.5000000   0.0000000   0.3333333), wk =   0.0133333
        k(  139) = (  -0.5000000   0.1000000  -0.0000000), wk =   0.0133333
        k(  140) = (  -0.5000000   0.1000000   0.3333333), wk =   0.0133333
        k(  141) = (  -0.5000000   0.1000000  -0.3333333), wk =   0.0133333
        k(  142) = (  -0.5000000   0.2000000  -0.0000000), wk =   0.0133333
        k(  143) = (  -0.5000000   0.2000000   0.3333333), wk =   0.0133333
        k(  144) = (  -0.5000000   0.2000000  -0.3333333), wk =   0.0133333
        k(  145) = (  -0.5000000   0.3000000   0.0000000), wk =   0.0133333
        k(  146) = (  -0.5000000   0.3000000   0.3333333), wk =   0.0133333
        k(  147) = (  -0.5000000   0.3000000  -0.3333333), wk =   0.0133333
        k(  148) = (  -0.5000000   0.4000000  -0.0000000), wk =   0.0133333
        k(  149) = (  -0.5000000   0.4000000   0.3333333), wk =   0.0133333
        k(  150) = (  -0.5000000   0.4000000  -0.3333333), wk =   0.0133333
        k(  151) = (  -0.5000000  -0.5000000   0.0000000), wk =   0.0066667
        k(  152) = (  -0.5000000  -0.5000000   0.3333333), wk =   0.0133333

     Check: negative core charge=   -0.000001

     Initial potential from superposition of free atoms

     starting charge     143.9834, renormalised to     144.0000

     negative rho (up, down):  9.878E-04 0.000E+00
     Starting wfcs are  112 randomized atomic wfcs
     Checking if some PAW data can be deallocated...

     Self-consistent Calculation

     iteration #  1     ecut=    40.00 Ry     beta= 0.40
     Davidson diagonalization with overlap

     ethr =  1.00E-02,  avg # of iterations =  2.4

     negative rho (up, down):  5.743E-04 0.000E+00

     total energy              =   -2750.44943268 Ry
     estimated scf accuracy    <       5.62244072 Ry

[...]

     c_bands:  1 eigenvalues not converged
     c_bands:  2 eigenvalues not converged
     c_bands:  1 eigenvalues not converged
     c_bands:  1 eigenvalues not converged
     ethr =  3.90E-03,  avg # of iterations = 14.0

[...]

     ethr =  6.70E-11,  avg # of iterations =  2.5

[...]

     total energy              =   -2752.80762181 Ry
     estimated scf accuracy    <       0.00000009 Ry

     iteration # 62     ecut=    40.00 Ry     beta= 0.40
     Davidson diagonalization with overlap

     c_bands:  1 eigenvalues not converged
     ethr =  6.19E-11,  avg # of iterations =  1.6

     negative rho (up, down):  7.074E-04 0.000E+00

     End of self-consistent calculation

          k = 0.0000 0.0000 0.0000 ( 22335 PWs)   bands (ev):

   -53.1461 -53.1298 -53.1293 -53.1135 -52.9644 -52.9488 -52.9473 -52.9322
   -29.3989 -29.3895 -29.3547 -29.3453 -29.3368 -29.3029 -29.2798 -29.2517
   -29.2215 -29.1834 -29.1559 -29.1344 -29.1305 -29.1285 -29.1266 -29.1199
   -29.1019 -29.0997 -29.0975 -29.0924 -28.9626 -28.9394 -28.9205 -28.8955
   -10.0053  -8.5402  -8.4606  -8.4321  -8.2197  -7.4341  -7.4163  -7.3939
    -4.0553  -3.7050  -3.2327  -2.9728  -2.8796  -2.7544  -2.3480  -2.0188
    -1.7067  -1.5666  -1.2777  -1.0997  -1.0327  -0.9219  -0.3922  -0.3569
    -0.3385  -0.2523  -0.2429  -0.0405   0.0290   0.2179   0.8339   1.0788
     1.0936   1.1562   1.1775   1.5153   1.6720   1.6743   1.9444   2.0275
     2.0286   2.0976   2.4482

     occupation numbers
     1.0000   1.0000   1.0000   1.0000   1.0000   1.0000   1.0000   1.0000
     1.0000   1.0000   1.0000   1.0000   1.0000   1.0000   1.0000   1.0000
     1.0000   1.0000   1.0000   1.0000   1.0000   1.0000   1.0000   1.0000
     1.0000   1.0000   1.0000   1.0000   1.0000   1.0000   1.0000   1.0000
     1.0000   1.0000   1.0000   1.0000   1.0000   1.0000   1.0000   1.0000
     1.0000   1.0000   1.0000   1.0000   1.0000   1.0000   1.0000   1.0000
     1.0000   1.0000   1.0000   1.0000   1.0000   1.0000   1.0000   1.0000
     1.0000   1.0000   1.0000   1.0000   1.0000   1.0000   1.0000   1.0000
     1.0000   1.0000   1.0000   1.0001   1.0410   1.0431   0.0734   0.0031
     0.0030   0.0001   0.0000

[...]

          k = 0.4000-0.1000-0.0424 ( 22287 PWs)   bands (ev):

[...]

          k =-0.5000 0.0000-0.1467 ( 22326 PWs)   bands (ev):

[...]

          k =-0.5000-0.5000-0.1630 ( 22264 PWs)   bands (ev):

   -53.1300 -53.1300 -53.1294 -53.1293 -52.9483 -52.9482 -52.9482 -52.9482
   -29.3025 -29.3022 -29.3021 -29.3019 -29.2598 -29.2592 -29.2589 -29.2588
   -29.2367 -29.2366 -29.2366 -29.2360 -29.1045 -29.1045 -29.1045 -29.1044
   -29.0785 -29.0784 -29.0784 -29.0784 -29.0169 -29.0168 -29.0168 -29.0168
    -8.8698  -8.8697  -8.8697  -8.8696  -7.7201  -7.7200  -7.7200  -7.7199
    -2.4287  -2.4286  -2.4285  -2.4285  -2.1516  -2.1515  -2.1514  -2.1514
    -1.8994  -1.8992  -1.8991  -1.8991  -1.0577  -1.0576  -1.0576  -1.0576
    -0.8496  -0.8495  -0.8495  -0.8495   0.3151   0.3151   0.3151   0.3153
     1.1580   1.1580   1.1581   1.1581   1.6254   1.6254   1.6255   1.6255
     1.8490   1.8494   1.8495

     occupation numbers
     1.0000   1.0000   1.0000   1.0000   1.0000   1.0000   1.0000   1.0000
     1.0000   1.0000   1.0000   1.0000   1.0000   1.0000   1.0000   1.0000
     1.0000   1.0000   1.0000   1.0000   1.0000   1.0000   1.0000   1.0000
     1.0000   1.0000   1.0000   1.0000   1.0000   1.0000   1.0000   1.0000
     1.0000   1.0000   1.0000   1.0000   1.0000   1.0000   1.0000   1.0000
     1.0000   1.0000   1.0000   1.0000   1.0000   1.0000   1.0000   1.0000
     1.0000   1.0000   1.0000   1.0000   1.0000   1.0000   1.0000   1.0000
     1.0000   1.0000   1.0000   1.0000   1.0000   1.0000   1.0000   1.0000
     1.0000   1.0000   1.0000   1.0000   1.0116   1.0116   1.0116   1.0116
     0.5692   0.5661   0.5653

     the Fermi energy is     1.8722 ev

!    total energy              =   -2752.80762178 Ry
     estimated scf accuracy    <       0.00000004 Ry
     smearing contrib. (-TS)   =      -0.00001819 Ry
     internal energy E=F+TS    =   -2752.80760359 Ry

     The total energy is F=E-TS. E is the sum of the following terms:
     one-electron contribution =   -4263.79325232 Ry
     hartree contribution      =    2146.77369710 Ry
     xc contribution           =    -264.32896535 Ry
     ewald contribution        =    1263.78741144 Ry
     one-center paw contrib.   =   -1635.24649446 Ry
      -> PAW hartree energy AE =     546.94601897 Ry
      -> PAW hartree energy PS =    -543.91125670 Ry
      -> PAW xc energy AE      =   -1853.04704222 Ry
      -> PAW xc energy PS      =     214.76578550 Ry
      -> total E_H with PAW    =    2149.80845937 Ry
      -> total E_XC with PAW   =   -1902.61022208 Ry

     convergence has been achieved in  62 iterations

     Writing all to output data dir ./out/NbP.supercell.save/

     General routines

     Parallel routines

     PAW routines

   This run was terminated on:  22:33:20  15Feb2024

   JOB DONE.