     Program PWSCF v.7.2 starts on  5Sep2024 at 13:50:54

     Waiting for input...
     Reading input from standard input

     Current dimensions of program PWSCF are:
     Max number of different atomic species (ntypx) = 10
     Max number of k-points (npk) =  40000
     Max angular momentum in pseudopotentials (lmaxx) =  4
     file Nb.pbesol-spn-kjpaw_psl.0.3.0.UPF: wavefunction(s)  4S 4P renormalized
     Message from routine setup:
     using ibrav=0 with symmetry is DISCOURAGED, use correct ibrav instead

     Subspace diagonalization in iterative solution of the eigenvalue problem:
     a serial algorithm will be used

     Using Slab Decomposition

     bravais-lattice index     =            0
     lattice parameter (alat)  =      11.6997  a.u.
     unit-cell volume          =     434.7255 (a.u.)^3
     number of atoms/cell      =            4
     number of atomic types    =            2
     number of electrons       =        36.00
     number of Kohn-Sham states=           22
     kinetic-energy cutoff     =      40.0000  Ry
     charge density cutoff     =     320.0000  Ry
     scf convergence threshold =      8.0E-10
     mixing beta               =       0.4000
     number of iterations used =            8  plain     mixing
     Exchange-correlation= PBESOL
                           (   1   4  10   8   0   0   0)

     celldm(1)=  11.699669  celldm(2)=   0.000000  celldm(3)=   0.000000
     celldm(4)=   0.000000  celldm(5)=   0.000000  celldm(6)=   0.000000

     crystal axes: (cart. coord. in units of alat)
               a(1) = (  -0.271065   0.271065   0.923606 )
               a(2) = (   0.271065  -0.271065   0.923606 )
               a(3) = (   0.271065   0.271065  -0.923606 )

     reciprocal axes: (cart. coord. in units 2 pi/alat)
               b(1) = (  0.000000  1.844574  0.541357 )
               b(2) = (  1.844574  0.000000  0.541357 )
               b(3) = (  1.844574  1.844574  0.000000 )

     PseudoPot. # 1 for Nb read from file:
     ./pseudo/Nb.pbesol-spn-kjpaw_psl.0.3.0.UPF
     MD5 check sum: 3501bca1474143575298708b2d32ca28
     Pseudo is Projector augmented-wave + core cor, Zval = 13.0
     Generated using "atomic" code by A. Dal Corso  v.6.0 svn rev. 13079
     Shape of augmentation charge: PSQ
     Using radial grid of 1227 points,  6 beta functions with:
                l(1) =   0
                l(2) =   0
                l(3) =   1
                l(4) =   1
                l(5) =   2
                l(6) =   2
     Q(r) pseudized with 0 coefficients

     PseudoPot. # 2 for P  read from file:
     ./pseudo/P.pbesol-n-rrkjus_psl.1.0.0.UPF
     MD5 check sum: bbb94b1b16383820d6a769669b5d42db
     Pseudo is Ultrasoft + core correction, Zval =  5.0
     Generated using "atomic" code by A. Dal Corso  v.6.0 svn rev. 13079
     Using radial grid of 1147 points,  6 beta functions with:
                l(1) =   0
                l(2) =   0
                l(3) =   1
                l(4) =   1
                l(5) =   2
                l(6) =   2
     Q(r) pseudized with 0 coefficients

     atomic species   valence    mass     pseudopotential
        Nb            13.00    92.90638     Nb( 1.00)
        P              5.00    30.97376     P ( 1.00)

     Starting magnetic structure
     atomic species   magnetization
        Nb           0.385
        P            0.100

      8 Sym. Ops. (no inversion) found ( 4 have fractional translation)

                                    s                        frac. trans.

      isym =  1     identity

 cryst.   s( 1) = (     1          0          0      )
                  (     0          1          0      )
                  (     0          0          1      )

 cart.    s( 1) = (  1.0000000  0.0000000  0.0000000 )
                  (  0.0000000  1.0000000  0.0000000 )
                  (  0.0000000  0.0000000  1.0000000 )

      isym =  2     180 deg rotation - cart. axis [0,0,1]

[...]

 cryst.   s( 3) = (     1          1          1      )    f =(  0.2500000 )
                  (     0          0         -1      )       ( -0.2500000 )
                  (    -1          0          0      )       (  0.5000000 )

 cart.    s( 3) = (  0.0000000  1.0000000  0.0000000 )    f =(  0.0000000 )
                  ( -1.0000000  0.0000000  0.0000000 )       (  0.2710653 )
                  (  0.0000000  0.0000000  1.0000000 )       ( -0.4618028 )

      isym =  4      90 deg rotation - cart. axis [0,0,1]

[...]

      isym =  5     inv. 180 deg rotation - cart. axis [0,1,0]

[...]

 cryst.   s( 6) = (     1          1          1      )
                  (     0          0         -1      )
                  (     0         -1          0      )

 cart.    s( 6) = ( -1.0000000  0.0000000  0.0000000 )
                  (  0.0000000  1.0000000  0.0000000 )
                  (  0.0000000  0.0000000  1.0000000 )

[...]

      isym =  8     inv. 180 deg rotation - cart. axis [1,-1,0]

 cryst.   s( 8) = (     0          1          0      )    f =(  0.2500000 )
                  (     1          0          0      )       ( -0.2500000 )
                  (     0          0          1      )       (  0.5000000 )

 cart.    s( 8) = (  0.0000000  1.0000000  0.0000000 )    f =(  0.0000000 )
                  (  1.0000000  0.0000000  0.0000000 )       (  0.2710653 )
                  (  0.0000000  0.0000000  1.0000000 )       ( -0.4618028 )

   Cartesian axes

     site n.     atom                  positions (alat units)
         1           Nb  tau(   1) = (   0.0000000   0.2710653   0.9234633  )
         2           Nb  tau(   2) = (  -0.0000000   0.0000000   0.4616605  )
         3           P   tau(   3) = (   0.2710653   0.0000000   0.7711127  )
         4           P   tau(   4) = (   0.2710653   0.2710653   0.3093100  )

   Crystallographic axes

     site n.     atom                  positions (cryst. coord.)
         1           Nb  tau(   1) = (  0.9999230  0.4999230  0.5000000  )
         2           Nb  tau(   2) = (  0.2499230  0.2499230  0.0000000  )
         3           P   tau(   3) = (  0.4174470  0.9174470  0.5000000  )
         4           P   tau(   4) = (  0.6674470  0.6674470  1.0000000  )

     number of k points=   411  Marzari-Vanderbilt smearing, width (Ry)=  0.0073
                       cart. coord. in units 2pi/alat
        k(    1) = (   0.0000000   0.0000000   0.0000000), wk =   0.0006378
        k(    2) = (   0.2305717   0.2305717   0.0000000), wk =   0.0012755
        k(    3) = (   0.4611435   0.4611435   0.0000000), wk =   0.0012755
        k(    4) = (   0.6917152   0.6917152   0.0000000), wk =   0.0012755
        k(    5) = (  -0.9222870  -0.9222870   0.0000000), wk =   0.0012755
        k(    6) = (   0.1317553   0.0000000   0.0386683), wk =   0.0025510
        k(    7) = (   0.3623270   0.2305717   0.0386683), wk =   0.0025510
        k(    8) = (   0.5928988   0.4611435   0.0386683), wk =   0.0025510
        k(    9) = (   0.8234705   0.6917152   0.0386683), wk =   0.0025510
        k(   10) = (  -0.7905317  -0.9222870   0.0386683), wk =   0.0051020
        k(   11) = (  -0.5599600  -0.6917152   0.0386683), wk =   0.0025510
        k(   12) = (  -0.3293882  -0.4611435   0.0386683), wk =   0.0025510
        k(   13) = (  -0.0988165  -0.2305717   0.0386683), wk =   0.0025510
        k(   14) = (   0.2635106   0.0000000   0.0773367), wk =   0.0025510
        k(   15) = (   0.4940823   0.2305717   0.0773367), wk =   0.0025510
        k(   16) = (   0.7246541   0.4611435   0.0773367), wk =   0.0025510
        k(   17) = (   0.9552258   0.6917152   0.0773367), wk =   0.0025510
        k(   18) = (  -0.6587764  -0.9222870   0.0773367), wk =   0.0051020
        k(   19) = (  -0.4282047  -0.6917152   0.0773367), wk =   0.0025510
        k(   20) = (  -0.1976329  -0.4611435   0.0773367), wk =   0.0025510
        k(   21) = (   0.0329388  -0.2305717   0.0773367), wk =   0.0025510
        k(   22) = (   0.3952659   0.0000000   0.1160050), wk =   0.0025510
        k(   23) = (   0.6258376   0.2305717   0.1160050), wk =   0.0025510
        k(   24) = (   0.8564093   0.4611435   0.1160050), wk =   0.0025510
        k(   25) = (   1.0869811   0.6917152   0.1160050), wk =   0.0025510
        k(   26) = (  -0.5270211  -0.9222870   0.1160050), wk =   0.0051020
        k(   27) = (  -0.2964494  -0.6917152   0.1160050), wk =   0.0025510
        k(   28) = (  -0.0658776  -0.4611435   0.1160050), wk =   0.0025510
        k(   29) = (   0.1646941  -0.2305717   0.1160050), wk =   0.0025510
        k(   30) = (   0.5270211   0.0000000   0.1546733), wk =   0.0025510
        k(   31) = (   0.7575929   0.2305717   0.1546733), wk =   0.0025510
        k(   32) = (   0.9881646   0.4611435   0.1546733), wk =   0.0025510
        k(   33) = (   1.2187364   0.6917152   0.1546733), wk =   0.0025510
        k(   34) = (  -0.3952659  -0.9222870   0.1546733), wk =   0.0051020
        k(   35) = (  -0.1646941  -0.6917152   0.1546733), wk =   0.0025510
        k(   36) = (   0.0658776  -0.4611435   0.1546733), wk =   0.0025510
        k(   37) = (   0.2964494  -0.2305717   0.1546733), wk =   0.0025510
        k(   38) = (   0.6587764   0.0000000   0.1933417), wk =   0.0025510
        k(   39) = (   0.8893482   0.2305717   0.1933417), wk =   0.0025510
        k(   40) = (   1.1199199   0.4611435   0.1933417), wk =   0.0025510
        k(   41) = (   1.3504917   0.6917152   0.1933417), wk =   0.0025510
        k(   42) = (  -0.2635106  -0.9222870   0.1933417), wk =   0.0051020
        k(   43) = (  -0.0329388  -0.6917152   0.1933417), wk =   0.0025510
        k(   44) = (   0.1976329  -0.4611435   0.1933417), wk =   0.0025510
        k(   45) = (   0.4282047  -0.2305717   0.1933417), wk =   0.0025510
        k(   46) = (   0.7905317   0.0000000   0.2320100), wk =   0.0025510
        k(   47) = (   1.0211035   0.2305717   0.2320100), wk =   0.0025510
        k(   48) = (   1.2516752   0.4611435   0.2320100), wk =   0.0025510
        k(   49) = (   1.4822469   0.6917152   0.2320100), wk =   0.0025510
        k(   50) = (  -0.1317553  -0.9222870   0.2320100), wk =   0.0051020
        k(   51) = (   0.0988165  -0.6917152   0.2320100), wk =   0.0025510
        k(   52) = (   0.3293882  -0.4611435   0.2320100), wk =   0.0025510
        k(   53) = (   0.5599600  -0.2305717   0.2320100), wk =   0.0025510
        k(   54) = (  -0.9222870   0.0000000  -0.2706783), wk =   0.0025510
        k(   55) = (  -0.6917152   0.2305717  -0.2706783), wk =   0.0051020
        k(   56) = (  -0.4611435   0.4611435  -0.2706783), wk =   0.0025510
        k(   57) = (   0.1317553   0.1317553   0.0773367), wk =   0.0012755
        k(   58) = (   0.3623270   0.3623270   0.0773367), wk =   0.0012755
        k(   59) = (   0.5928988   0.5928988   0.0773367), wk =   0.0012755
        k(   60) = (   0.8234705   0.8234705   0.0773367), wk =   0.0012755
[...]
        k(  397) = (  -0.4611435   1.2516752  -0.0386683), wk =   0.0025510
        k(  398) = (  -0.2305717   1.4822469  -0.0386683), wk =   0.0025510
        k(  399) = (  -1.8445740  -0.1317553  -0.0386683), wk =   0.0025510
        k(  400) = (  -1.6140022   0.0988165  -0.0386683), wk =   0.0025510
        k(  401) = (  -1.3834305   0.3293882  -0.0386683), wk =   0.0025510
        k(  402) = (  -1.1528587   0.5599600  -0.0386683), wk =   0.0025510
        k(  403) = (  -0.7905317   0.7905317  -0.0000000), wk =   0.0012755
        k(  404) = (  -0.5599600   1.0211035  -0.0000000), wk =   0.0025510
        k(  405) = (  -0.3293882   1.2516752  -0.0000000), wk =   0.0025510
        k(  406) = (  -0.0988165   1.4822469  -0.0000000), wk =   0.0025510
        k(  407) = (  -1.7128187  -0.1317553  -0.0000000), wk =   0.0012755
        k(  408) = (  -0.6917152  -0.6917152  -0.5413566), wk =   0.0012755
        k(  409) = (  -0.4611435  -0.4611435  -0.5413566), wk =   0.0012755
        k(  410) = (  -0.2305717  -0.2305717  -0.5413566), wk =   0.0012755
        k(  411) = (  -1.8445740  -1.8445740  -0.5413566), wk =   0.0006378

                       cryst. coord.
        k(    1) = (   0.0000000   0.0000000   0.0000000), wk =   0.0006378
        k(    2) = (   0.0000000   0.0000000   0.1250000), wk =   0.0012755
        k(    3) = (   0.0000000   0.0000000   0.2500000), wk =   0.0012755
        k(    4) = (   0.0000000   0.0000000   0.3750000), wk =   0.0012755
        k(    5) = (   0.0000000   0.0000000  -0.5000000), wk =   0.0012755
        k(    6) = (   0.0000000   0.0714286   0.0000000), wk =   0.0025510
        k(    7) = (   0.0000000   0.0714286   0.1250000), wk =   0.0025510
        k(    8) = (  -0.0000000   0.0714286   0.2500000), wk =   0.0025510
        k(    9) = (  -0.0000000   0.0714286   0.3750000), wk =   0.0025510
        k(   10) = (   0.0000000   0.0714286  -0.5000000), wk =   0.0051020
        k(   11) = (  -0.0000000   0.0714286  -0.3750000), wk =   0.0025510
        k(   12) = (   0.0000000   0.0714286  -0.2500000), wk =   0.0025510
        k(   13) = (   0.0000000   0.0714286  -0.1250000), wk =   0.0025510
        k(   14) = (   0.0000000   0.1428571   0.0000000), wk =   0.0025510
        k(   15) = (   0.0000000   0.1428571   0.1250000), wk =   0.0025510
        k(   16) = (   0.0000000   0.1428571   0.2500000), wk =   0.0025510
        k(   17) = (  -0.0000000   0.1428571   0.3750000), wk =   0.0025510
        k(   18) = (   0.0000000   0.1428571  -0.5000000), wk =   0.0051020
        k(   19) = (   0.0000000   0.1428571  -0.3750000), wk =   0.0025510
        k(   20) = (   0.0000000   0.1428571  -0.2500000), wk =   0.0025510
        k(   21) = (   0.0000000   0.1428571  -0.1250000), wk =   0.0025510
        k(   22) = (  -0.0000000   0.2142857   0.0000000), wk =   0.0025510
        k(   23) = (  -0.0000000   0.2142857   0.1250000), wk =   0.0025510
        k(   24) = (  -0.0000000   0.2142857   0.2500000), wk =   0.0025510
        k(   25) = (  -0.0000000   0.2142857   0.3750000), wk =   0.0025510
        k(   26) = (   0.0000000   0.2142857  -0.5000000), wk =   0.0051020
        k(   27) = (  -0.0000000   0.2142857  -0.3750000), wk =   0.0025510
        k(   28) = (   0.0000000   0.2142857  -0.2500000), wk =   0.0025510
        k(   29) = (  -0.0000000   0.2142857  -0.1250000), wk =   0.0025510
        k(   30) = (   0.0000000   0.2857143   0.0000000), wk =   0.0025510
        k(   31) = (   0.0000000   0.2857143   0.1250000), wk =   0.0025510
        k(   32) = (   0.0000000   0.2857143   0.2500000), wk =   0.0025510
        k(   33) = (  -0.0000000   0.2857143   0.3750000), wk =   0.0025510
        k(   34) = (   0.0000000   0.2857143  -0.5000000), wk =   0.0051020
        k(   35) = (   0.0000000   0.2857143  -0.3750000), wk =   0.0025510
        k(   36) = (   0.0000000   0.2857143  -0.2500000), wk =   0.0025510
        k(   37) = (   0.0000000   0.2857143  -0.1250000), wk =   0.0025510
        k(   38) = (  -0.0000000   0.3571429   0.0000000), wk =   0.0025510
        k(   39) = (  -0.0000000   0.3571429   0.1250000), wk =   0.0025510
        k(   40) = (  -0.0000000   0.3571429   0.2500000), wk =   0.0025510
        k(   41) = (   0.0000000   0.3571429   0.3750000), wk =   0.0025510
        k(   42) = (   0.0000000   0.3571429  -0.5000000), wk =   0.0051020
        k(   43) = (  -0.0000000   0.3571429  -0.3750000), wk =   0.0025510
        k(   44) = (  -0.0000000   0.3571429  -0.2500000), wk =   0.0025510
        k(   45) = (  -0.0000000   0.3571429  -0.1250000), wk =   0.0025510
        k(   46) = (  -0.0000000   0.4285714   0.0000000), wk =   0.0025510
        k(   47) = (  -0.0000000   0.4285714   0.1250000), wk =   0.0025510
        k(   48) = (  -0.0000000   0.4285714   0.2500000), wk =   0.0025510
        k(   49) = (   0.0000000   0.4285714   0.3750000), wk =   0.0025510
        k(   50) = (   0.0000000   0.4285714  -0.5000000), wk =   0.0051020
        k(   51) = (  -0.0000000   0.4285714  -0.3750000), wk =   0.0025510
        k(   52) = (  -0.0000000   0.4285714  -0.2500000), wk =   0.0025510
        k(   53) = (  -0.0000000   0.4285714  -0.1250000), wk =   0.0025510
        k(   54) = (   0.0000000  -0.5000000   0.0000000), wk =   0.0025510
        k(   55) = (   0.0000000  -0.5000000   0.1250000), wk =   0.0051020
        k(   56) = (   0.0000000  -0.5000000   0.2500000), wk =   0.0025510
        k(   57) = (   0.0714286   0.0714286   0.0000000), wk =   0.0012755
        k(   58) = (   0.0714286   0.0714286   0.1250000), wk =   0.0012755
        k(   59) = (   0.0714286   0.0714286   0.2500000), wk =   0.0012755
        k(   60) = (   0.0714286   0.0714286   0.3750000), wk =   0.0012755
[...]
        k(  397) = (   0.4285714  -0.5000000   0.2500000), wk =   0.0025510
        k(  398) = (   0.4285714  -0.5000000   0.3750000), wk =   0.0025510
        k(  399) = (   0.4285714  -0.5000000  -0.5000000), wk =   0.0025510
        k(  400) = (   0.4285714  -0.5000000  -0.3750000), wk =   0.0025510
        k(  401) = (   0.4285714  -0.5000000  -0.2500000), wk =   0.0025510
        k(  402) = (   0.4285714  -0.5000000  -0.1250000), wk =   0.0025510
        k(  403) = (   0.4285714  -0.4285714  -0.0000000), wk =   0.0012755
        k(  404) = (   0.4285714  -0.4285714   0.1250000), wk =   0.0025510
        k(  405) = (   0.4285714  -0.4285714   0.2500000), wk =   0.0025510
        k(  406) = (   0.4285714  -0.4285714   0.3750000), wk =   0.0025510
        k(  407) = (   0.4285714  -0.4285714  -0.5000000), wk =   0.0012755
        k(  408) = (  -0.5000000  -0.5000000   0.1250000), wk =   0.0012755
        k(  409) = (  -0.5000000  -0.5000000   0.2500000), wk =   0.0012755
        k(  410) = (  -0.5000000  -0.5000000   0.3750000), wk =   0.0012755
        k(  411) = (  -0.5000000  -0.5000000  -0.5000000), wk =   0.0006378

     Check: negative core charge=   -0.000003
     Generating pointlists ...
     new r_m :   0.1697 (alat units)  1.9854 (a.u.) for type    1
     new r_m :   0.1697 (alat units)  1.9854 (a.u.) for type    2

     Initial potential from superposition of free atoms

     starting charge      35.9958, renormalised to      36.0000
     Starting wfcs are   28 randomized atomic wfcs
     Checking if some PAW data can be deallocated...

     Self-consistent Calculation

     iteration #  1     ecut=    40.00 Ry     beta= 0.40
     Davidson diagonalization with overlap

     ethr =  1.00E-02,  avg # of iterations =  2.8

     total energy              =    -688.09912721 Ry
     estimated scf accuracy    <       0.83136503 Ry

     total magnetization       =     1.77 Bohr mag/cell
     absolute magnetization    =     2.12 Bohr mag/cell

[...]

     c_bands:  1 eigenvalues not converged
     c_bands:  1 eigenvalues not converged
     ethr =  1.51E-05,  avg # of iterations =  6.8

[...]

     total energy              =    -688.47181886 Ry
     estimated scf accuracy    <       0.00000004 Ry

[...]

     iteration # 18     ecut=    40.00 Ry     beta= 0.40
     Davidson diagonalization with overlap

     ethr =  2.56E-11,  avg # of iterations =  3.5

     Magnetic moment per site  (integrated on atomic sphere of radius R)
     atom   1 (R=0.170)  charge= 10.0102  magn=  0.0000
     atom   2 (R=0.170)  charge= 10.0102  magn=  0.0000
     atom   3 (R=0.170)  charge=  3.4582  magn= -0.0000
     atom   4 (R=0.170)  charge=  3.4582  magn= -0.0000

     End of self-consistent calculation

 ------ SPIN UP ------------

          k = 0.0000 0.0000 0.0000 (  1857 PWs)   bands (ev):

   -40.0161 -39.9777 -16.3155 -16.1175 -16.1175 -15.9717 -15.9717 -15.9239
     2.1174   4.5550   8.6521  11.8047  12.5835  12.5835  12.6812  13.1261
    13.4670  13.4670  15.6201  16.4053  17.4897  17.9439

     occupation numbers
     1.0000   1.0000   1.0000   1.0000   1.0000   1.0000   1.0000   1.0000
     1.0000   1.0000   1.0000   1.0000   1.0000   1.0000   1.0000   1.0000
     1.0000   1.0000   0.0000   0.0000   0.0000   0.0000

[...]

          k =-0.9223-0.9223 0.0000 (  1842 PWs)   bands (ev):

[...]

 ------ SPIN DOWN ----------

[...]

          k = 0.5600 0.5600 0.4640 (  1850 PWs)   bands (ev):

[...]

          k =-1.8446-1.8446-0.5414 (  1834 PWs)   bands (ev):

   -39.9969 -39.9969 -16.1258 -16.1258 -16.1229 -16.1229 -15.9628 -15.9628
     3.1075   3.1075  10.8225  10.8225  12.1165  12.1165  12.1392  12.1392
    14.2903  14.2903  15.9867  15.9867  17.1339  17.1339

     occupation numbers
     1.0000   1.0000   1.0000   1.0000   1.0000   1.0000   1.0000   1.0000
     1.0000   1.0000   1.0000   1.0000   1.0000   1.0000   1.0000   1.0000
     1.0000   1.0000   0.0000   0.0000   0.0000   0.0000

     the Fermi energy is    14.8170 ev

!    total energy              =    -688.47181887 Ry
     estimated scf accuracy    <          1.4E-10 Ry
     smearing contrib. (-TS)   =       0.00005609 Ry
     internal energy E=F+TS    =    -688.47187496 Ry

     The total energy is F=E-TS. E is the sum of the following terms:
     one-electron contribution =     -37.27429070 Ry
     hartree contribution      =      39.41281011 Ry
     xc contribution           =     -66.44809965 Ry
     ewald contribution        =    -215.34496265 Ry
     one-center paw contrib.   =    -408.81733206 Ry
      -> PAW hartree energy AE =     136.91158312 Ry
      -> PAW hartree energy PS =    -136.15228961 Ry
      -> PAW xc energy AE      =    -463.28305422 Ry
      -> PAW xc energy PS      =      53.70642866 Ry
      -> total E_H with PAW    =      40.17210361 Ry
      -> total E_XC with PAW   =    -476.02472521 Ry

     total magnetization       =     0.00 Bohr mag/cell
     absolute magnetization    =     0.00 Bohr mag/cell

     convergence has been achieved in  18 iterations

     Forces acting on atoms (cartesian axes, Ry/au):

     atom    1 type  1   force =    -0.00000000   -0.00000000   -0.00002993
     atom    2 type  1   force =     0.00000000    0.00000000   -0.00002993
     atom    3 type  2   force =     0.00000000   -0.00000000    0.00002993
     atom    4 type  2   force =     0.00000000   -0.00000000    0.00002993
     The non-local contrib.  to forces
     atom    1 type  1   force =    -0.00000000    0.00000000   -0.00440554
     atom    2 type  1   force =    -0.00000000   -0.00000000   -0.00440554
     atom    3 type  2   force =    -0.00000000    0.00000000   -0.00407003
     atom    4 type  2   force =     0.00000000   -0.00000000   -0.00407003
     The ionic contribution  to forces
     atom    1 type  1   force =     0.00000000   -0.00000000   -0.10637256
     atom    2 type  1   force =    -0.00000000   -0.00000000   -0.10637256
     atom    3 type  2   force =     0.00000000    0.00000000    0.10637256
     atom    4 type  2   force =    -0.00000000   -0.00000000    0.10637256
     The local contribution  to forces
     atom    1 type  1   force =    -0.00000000    0.00000000    0.11030030
     atom    2 type  1   force =    -0.00000000    0.00000000    0.11030030
     atom    3 type  2   force =     0.00000000    0.00000000   -0.10228527
     atom    4 type  2   force =     0.00000000    0.00000000   -0.10228527
     The core correction contribution to forces
     atom    1 type  1   force =    -0.00000000    0.00000000    0.00045017
     atom    2 type  1   force =     0.00000000    0.00000000    0.00045017
     atom    3 type  2   force =    -0.00000000   -0.00000000    0.00001306
     atom    4 type  2   force =     0.00000000    0.00000000    0.00001306
     The Hubbard contrib.    to forces
     atom    1 type  1   force =     0.00000000    0.00000000    0.00000000
     atom    2 type  1   force =     0.00000000    0.00000000    0.00000000
     atom    3 type  2   force =     0.00000000    0.00000000    0.00000000
     atom    4 type  2   force =     0.00000000    0.00000000    0.00000000
     The SCF correction term to forces
     atom    1 type  1   force =    -0.00000000   -0.00000000   -0.00000222
     atom    2 type  1   force =     0.00000000    0.00000000   -0.00000222
     atom    3 type  2   force =     0.00000000   -0.00000000   -0.00000031
     atom    4 type  2   force =    -0.00000000   -0.00000000   -0.00000031

     Total force =     0.000060     Total SCF correction =     0.000003

     Computing stress (Cartesian axis) and pressure

          total   stress  (Ry/bohr**3)                   (kbar)     P=      -67.18
  -0.00047041  -0.00000000  -0.00000000          -69.20       -0.00       -0.00
  -0.00000000  -0.00047041  -0.00000000           -0.00      -69.20       -0.00
  -0.00000000  -0.00000000  -0.00042916           -0.00       -0.00      -63.13

     kinetic stress (kbar)  21869.50      0.00      0.00
                                0.00  21869.50      0.00
                                0.00      0.00  22074.96

     local   stress (kbar)  -6027.25     -0.00      0.00
                               -0.00  -6027.25     -0.00
                                0.00     -0.00  -5252.55

     nonloc. stress (kbar)   8544.25      0.00     -0.00
                                0.00   8544.25     -0.00
                               -0.00     -0.00   8475.80

     hartree stress (kbar)   4431.86     -0.00     -0.00
                               -0.00   4431.86      0.00
                               -0.00      0.00   4473.04

     exc-cor stress (kbar)   6099.28     -0.00      0.00
                               -0.00   6099.28     -0.00
                                0.00     -0.00   6099.07

     corecor stress (kbar) -11013.37     -0.00      0.00
                               -0.00 -11013.37      0.00
                                0.00      0.00 -11010.63

     ewald   stress (kbar) -23973.47      0.00     -0.00
                                0.00 -23973.47      0.00
                               -0.00      0.00 -24922.81

     hubbard stress (kbar)      0.00      0.00      0.00
                                0.00      0.00      0.00
                                0.00      0.00      0.00

     DFT-D   stress (kbar)      0.00      0.00      0.00
                                0.00      0.00      0.00
                                0.00      0.00      0.00

     XDM     stress (kbar)      0.00      0.00      0.00
                                0.00      0.00      0.00
                                0.00      0.00      0.00

     dft-nl  stress (kbar)      0.00      0.00      0.00
                                0.00      0.00      0.00
                                0.00      0.00      0.00

     TS-vdW  stress (kbar)      0.00      0.00      0.00
                                0.00      0.00      0.00
                                0.00      0.00      0.00

     MDB     stress (kbar)      0.00      0.00      0.00
                                0.00      0.00      0.00
                                0.00      0.00      0.00

     3D-RISM stress (kbar)      0.00      0.00      0.00
                                0.00      0.00      0.00
                                0.00      0.00      0.00

     Writing all to output data dir ./out/NbP_spin.save/

     General routines

     Parallel routines

     PAW routines

   This run was terminated on:  15: 2:44   5Sep2024

   JOB DONE.